NAME: cuum850.tsp
TYPE: TSP
COMMENT: User-generated TSP file
DIMENSION: 850
EDGE_WEIGHT_TYPE: EUC_2D
NODE_COORD_SECTION
1 601.0 482.0
2 778.0 20.0
3 186.0 531.0
4 174.0 96.0
5 600.0 842.0
6 547.0 542.0
7 561.0 406.0
8 672.0 343.0
9 478.0 660.0
10 179.0 246.0
11 248.0 546.0
12 109.0 711.0
13 476.0 638.0
14 66.0 10.0
15 427.0 797.0
16 280.0 604.0
17 529.0 299.0
18 546.0 213.0
19 325.0 621.0
20 355.0 564.0
21 744.0 266.0
22 833.0 127.0
23 374.0 36.0
24 504.0 159.0
25 227.0 119.0
26 529.0 446.0
27 631.0 446.0
28 364.0 283.0
29 685.0 501.0
30 577.0 658.0
31 572.0 845.0
32 754.0 181.0
33 291.0 646.0
34 758.0 458.0
35 823.0 700.0
36 608.0 375.0
37 717.0 327.0
38 281.0 625.0
39 470.0 446.0
40 67.0 368.0
41 814.0 265.0
42 582.0 332.0
43 105.0 570.0
44 518.0 767.0
45 85.0 56.0
46 453.0 14.0
47 66.0 461.0
48 331.0 271.0
49 420.0 192.0
50 88.0 293.0
51 108.0 673.0
52 776.0 69.0
53 61.0 737.0
54 190.0 552.0
55 176.0 30.0
56 455.0 143.0
57 280.0 193.0
58 755.0 340.0
59 403.0 341.0
60 560.0 336.0
61 483.0 630.0
62 716.0 170.0
63 591.0 824.0
64 446.0 155.0
65 580.0 606.0
66 660.0 820.0
67 77.0 551.0
68 632.0 82.0
69 222.0 265.0
70 46.0 151.0
71 667.0 162.0
72 723.0 588.0
73 757.0 831.0
74 762.0 430.0
75 849.0 361.0
76 119.0 340.0
77 270.0 252.0
78 17.0 706.0
79 368.0 302.0
80 563.0 8.0
81 219.0 436.0
82 215.0 795.0
83 461.0 572.0
84 573.0 719.0
85 572.0 753.0
86 492.0 429.0
87 652.0 669.0
88 417.0 161.0
89 335.0 820.0
90 542.0 708.0
91 189.0 718.0
92 314.0 188.0
93 429.0 104.0
94 255.0 406.0
95 639.0 666.0
96 654.0 810.0
97 10.0 572.0
98 496.0 102.0
99 174.0 261.0
100 563.0 28.0
101 808.0 503.0
102 725.0 12.0
103 493.0 728.0
104 368.0 236.0
105 538.0 668.0
106 147.0 60.0
107 627.0 834.0
108 624.0 621.0
109 559.0 424.0
110 576.0 67.0
111 1.0 204.0
112 578.0 280.0
113 684.0 235.0
114 19.0 843.0
115 16.0 222.0
116 287.0 176.0
117 562.0 482.0
118 206.0 57.0
119 140.0 177.0
120 380.0 69.0
121 711.0 545.0
122 531.0 301.0
123 574.0 573.0
124 63.0 335.0
125 58.0 412.0
126 788.0 249.0
127 557.0 524.0
128 200.0 207.0
129 588.0 524.0
130 233.0 652.0
131 268.0 678.0
132 607.0 783.0
133 543.0 420.0
134 159.0 310.0
135 46.0 655.0
136 150.0 316.0
137 16.0 290.0
138 553.0 479.0
139 423.0 261.0
140 354.0 447.0
141 172.0 837.0
142 165.0 145.0
143 753.0 287.0
144 807.0 446.0
145 488.0 809.0
146 292.0 486.0
147 458.0 234.0
148 378.0 569.0
149 655.0 499.0
150 368.0 453.0
151 431.0 138.0
152 729.0 106.0
153 657.0 433.0
154 456.0 292.0
155 816.0 413.0
156 299.0 603.0
157 394.0 244.0
158 679.0 850.0
159 555.0 846.0
160 429.0 56.0
161 786.0 694.0
162 617.0 744.0
163 228.0 494.0
164 510.0 605.0
165 546.0 42.0
166 381.0 500.0
167 779.0 664.0
168 842.0 522.0
169 169.0 343.0
170 676.0 742.0
171 743.0 603.0
172 15.0 263.0
173 809.0 82.0
174 540.0 257.0
175 505.0 687.0
176 761.0 234.0
177 312.0 836.0
178 255.0 332.0
179 477.0 68.0
180 33.0 790.0
181 529.0 813.0
182 401.0 528.0
183 404.0 669.0
184 807.0 20.0
185 786.0 84.0
186 484.0 571.0
187 272.0 43.0
188 63.0 665.0
189 358.0 232.0
190 61.0 563.0
191 235.0 426.0
192 690.0 719.0
193 276.0 329.0
194 532.0 708.0
195 739.0 196.0
196 444.0 252.0
197 411.0 396.0
198 391.0 462.0
199 165.0 848.0
200 352.0 208.0
201 80.0 811.0
202 655.0 754.0
203 613.0 790.0
204 683.0 727.0
205 618.0 460.0
206 638.0 462.0
207 224.0 561.0
208 399.0 798.0
209 437.0 694.0
210 614.0 626.0
211 338.0 824.0
212 398.0 98.0
213 374.0 521.0
214 846.0 625.0
215 220.0 775.0
216 562.0 343.0
217 579.0 819.0
218 23.0 266.0
219 18.0 265.0
220 29.0 403.0
221 781.0 602.0
222 168.0 360.0
223 492.0 429.0
224 664.0 276.0
225 846.0 591.0
226 574.0 297.0
227 586.0 654.0
228 786.0 15.0
229 434.0 564.0
230 380.0 524.0
231 465.0 764.0
232 98.0 329.0
233 835.0 798.0
234 175.0 254.0
235 463.0 820.0
236 134.0 814.0
237 723.0 481.0
238 131.0 308.0
239 277.0 831.0
240 174.0 459.0
241 612.0 60.0
242 811.0 438.0
243 510.0 702.0
244 231.0 846.0
245 690.0 428.0
246 632.0 239.0
247 608.0 838.0
248 415.0 312.0
249 177.0 818.0
250 698.0 707.0
251 440.0 806.0
252 345.0 612.0
253 411.0 19.0
254 684.0 438.0
255 152.0 679.0
256 224.0 738.0
257 115.0 249.0
258 82.0 759.0
259 374.0 573.0
260 325.0 752.0
261 674.0 342.0
262 452.0 528.0
263 9.0 691.0
264 281.0 624.0
265 164.0 792.0
266 416.0 87.0
267 698.0 572.0
268 520.0 670.0
269 103.0 757.0
270 52.0 180.0
271 515.0 828.0
272 685.0 264.0
273 516.0 290.0
274 848.0 43.0
275 578.0 811.0
276 810.0 678.0
277 182.0 782.0
278 620.0 483.0
279 766.0 757.0
280 260.0 589.0
281 504.0 343.0
282 179.0 343.0
283 15.0 804.0
284 96.0 467.0
285 562.0 474.0
286 148.0 586.0
287 50.0 695.0
288 196.0 759.0
289 237.0 656.0
290 278.0 515.0
291 623.0 747.0
292 575.0 671.0
293 426.0 488.0
294 792.0 252.0
295 669.0 265.0
296 699.0 742.0
297 346.0 73.0
298 441.0 250.0
299 379.0 593.0
300 321.0 54.0
301 252.0 413.0
302 751.0 149.0
303 665.0 119.0
304 728.0 174.0
305 8.0 101.0
306 778.0 206.0
307 165.0 815.0
308 104.0 440.0
309 830.0 769.0
310 101.0 528.0
311 286.0 577.0
312 278.0 425.0
313 792.0 634.0
314 705.0 98.0
315 146.0 289.0
316 143.0 115.0
317 83.0 460.0
318 106.0 100.0
319 841.0 512.0
320 210.0 381.0
321 138.0 125.0
322 618.0 55.0
323 221.0 381.0
324 821.0 830.0
325 342.0 101.0
326 266.0 91.0
327 709.0 712.0
328 738.0 3.0
329 73.0 486.0
330 288.0 290.0
331 748.0 743.0
332 203.0 632.0
333 465.0 51.0
334 552.0 490.0
335 691.0 402.0
336 732.0 237.0
337 286.0 483.0
338 54.0 293.0
339 544.0 151.0
340 840.0 726.0
341 214.0 140.0
342 789.0 480.0
343 805.0 596.0
344 15.0 566.0
345 214.0 643.0
346 423.0 196.0
347 235.0 107.0
348 107.0 436.0
349 423.0 506.0
350 131.0 136.0
351 273.0 565.0
352 478.0 432.0
353 562.0 21.0
354 837.0 735.0
355 675.0 460.0
356 224.0 792.0
357 77.0 800.0
358 780.0 397.0
359 527.0 750.0
360 92.0 549.0
361 770.0 769.0
362 207.0 637.0
363 706.0 201.0
364 632.0 757.0
365 212.0 315.0
366 401.0 314.0
367 150.0 789.0
368 108.0 740.0
369 232.0 459.0
370 530.0 781.0
371 640.0 252.0
372 745.0 309.0
373 553.0 838.0
374 402.0 150.0
375 551.0 431.0
376 527.0 187.0
377 764.0 817.0
378 714.0 741.0
379 492.0 385.0
380 638.0 594.0
381 656.0 258.0
382 257.0 486.0
383 95.0 708.0
384 377.0 488.0
385 535.0 33.0
386 691.0 816.0
387 801.0 601.0
388 352.0 844.0
389 557.0 168.0
390 178.0 460.0
391 281.0 645.0
392 653.0 726.0
393 231.0 248.0
394 197.0 500.0
395 463.0 692.0
396 641.0 102.0
397 636.0 112.0
398 388.0 526.0
399 687.0 3.0
400 648.0 103.0
401 623.0 188.0
402 58.0 95.0
403 791.0 38.0
404 168.0 716.0
405 716.0 358.0
406 96.0 301.0
407 178.0 237.0
408 632.0 589.0
409 125.0 508.0
410 59.0 560.0
411 746.0 339.0
412 121.0 412.0
413 360.0 53.0
414 131.0 483.0
415 113.0 721.0
416 624.0 71.0
417 532.0 603.0
418 352.0 219.0
419 686.0 136.0
420 642.0 17.0
421 156.0 248.0
422 620.0 560.0
423 400.0 120.0
424 20.0 225.0
425 406.0 49.0
426 439.0 299.0
427 243.0 284.0
428 642.0 814.0
429 234.0 638.0
430 576.0 793.0
431 24.0 710.0
432 336.0 833.0
433 78.0 194.0
434 700.0 403.0
435 244.0 323.0
436 220.0 104.0
437 284.0 266.0
438 498.0 72.0
439 196.0 588.0
440 313.0 658.0
441 230.0 334.0
442 411.0 244.0
443 157.0 233.0
444 791.0 811.0
445 681.0 759.0
446 26.0 250.0
447 609.0 563.0
448 424.0 730.0
449 317.0 708.0
450 562.0 71.0
451 677.0 331.0
452 608.0 205.0
453 706.0 335.0
454 65.0 357.0
455 98.0 103.0
456 402.0 678.0
457 236.0 200.0
458 619.0 389.0
459 169.0 407.0
460 245.0 207.0
461 738.0 459.0
462 323.0 88.0
463 533.0 331.0
464 659.0 474.0
465 357.0 242.0
466 36.0 646.0
467 741.0 781.0
468 282.0 843.0
469 200.0 198.0
470 682.0 32.0
471 66.0 276.0
472 30.0 73.0
473 197.0 344.0
474 621.0 479.0
475 267.0 770.0
476 54.0 41.0
477 320.0 74.0
478 595.0 495.0
479 348.0 474.0
480 62.0 812.0
481 666.0 810.0
482 724.0 122.0
483 489.0 648.0
484 594.0 834.0
485 811.0 102.0
486 517.0 654.0
487 649.0 404.0
488 333.0 403.0
489 297.0 829.0
490 169.0 713.0
491 1.0 653.0
492 213.0 165.0
493 292.0 753.0
494 235.0 122.0
495 139.0 223.0
496 90.0 284.0
497 438.0 158.0
498 504.0 122.0
499 147.0 467.0
500 797.0 592.0
501 658.0 528.0
502 684.0 146.0
503 484.0 427.0
504 653.0 736.0
505 769.0 203.0
506 591.0 89.0
507 106.0 24.0
508 596.0 645.0
509 780.0 538.0
510 391.0 277.0
511 515.0 793.0
512 612.0 241.0
513 584.0 256.0
514 61.0 846.0
515 189.0 482.0
516 209.0 252.0
517 194.0 257.0
518 332.0 694.0
519 119.0 561.0
520 34.0 435.0
521 749.0 295.0
522 346.0 225.0
523 457.0 384.0
524 246.0 544.0
525 549.0 351.0
526 706.0 464.0
527 418.0 665.0
528 19.0 703.0
529 473.0 815.0
530 53.0 541.0
531 306.0 796.0
532 481.0 784.0
533 416.0 632.0
534 279.0 317.0
535 110.0 636.0
536 474.0 107.0
537 821.0 305.0
538 750.0 804.0
539 297.0 777.0
540 292.0 664.0
541 812.0 461.0
542 608.0 345.0
543 459.0 103.0
544 326.0 152.0
545 670.0 787.0
546 135.0 567.0
547 358.0 82.0
548 770.0 822.0
549 139.0 549.0
550 813.0 58.0
551 474.0 777.0
552 746.0 695.0
553 25.0 562.0
554 190.0 673.0
555 802.0 573.0
556 120.0 220.0
557 695.0 503.0
558 676.0 611.0
559 306.0 277.0
560 449.0 439.0
561 267.0 587.0
562 598.0 264.0
563 403.0 580.0
564 482.0 334.0
565 74.0 816.0
566 456.0 53.0
567 36.0 365.0
568 444.0 461.0
569 603.0 231.0
570 838.0 769.0
571 90.0 186.0
572 599.0 564.0
573 196.0 317.0
574 620.0 391.0
575 228.0 255.0
576 384.0 712.0
577 659.0 815.0
578 423.0 638.0
579 711.0 107.0
580 303.0 104.0
581 256.0 78.0
582 336.0 58.0
583 706.0 198.0
584 190.0 757.0
585 266.0 156.0
586 655.0 617.0
587 174.0 139.0
588 323.0 345.0
589 704.0 416.0
590 479.0 584.0
591 370.0 67.0
592 63.0 431.0
593 427.0 666.0
594 495.0 56.0
595 770.0 37.0
596 489.0 230.0
597 54.0 704.0
598 234.0 564.0
599 95.0 770.0
600 54.0 76.0
601 135.0 666.0
602 750.0 415.0
603 850.0 427.0
604 503.0 630.0
605 220.0 686.0
606 197.0 697.0
607 845.0 695.0
608 574.0 201.0
609 178.0 748.0
610 792.0 513.0
611 94.0 34.0
612 202.0 790.0
613 468.0 499.0
614 418.0 85.0
615 637.0 429.0
616 115.0 386.0
617 822.0 8.0
618 473.0 721.0
619 843.0 37.0
620 513.0 99.0
621 100.0 494.0
622 548.0 784.0
623 468.0 656.0
624 358.0 220.0
625 391.0 53.0
626 513.0 790.0
627 79.0 822.0
628 716.0 269.0
629 51.0 307.0
630 776.0 266.0
631 719.0 650.0
632 294.0 503.0
633 314.0 381.0
634 757.0 612.0
635 120.0 18.0
636 777.0 517.0
637 339.0 233.0
638 522.0 31.0
639 760.0 49.0
640 400.0 717.0
641 394.0 299.0
642 153.0 528.0
643 269.0 752.0
644 221.0 108.0
645 42.0 155.0
646 528.0 833.0
647 225.0 671.0
648 826.0 538.0
649 52.0 167.0
650 467.0 585.0
651 137.0 669.0
652 393.0 214.0
653 408.0 391.0
654 725.0 651.0
655 642.0 760.0
656 708.0 1.0
657 73.0 31.0
658 325.0 693.0
659 36.0 72.0
660 341.0 563.0
661 316.0 262.0
662 491.0 400.0
663 687.0 40.0
664 321.0 228.0
665 211.0 678.0
666 620.0 471.0
667 434.0 410.0
668 647.0 460.0
669 205.0 765.0
670 664.0 103.0
671 735.0 729.0
672 56.0 318.0
673 657.0 698.0
674 467.0 438.0
675 815.0 201.0
676 303.0 103.0
677 738.0 281.0
678 500.0 173.0
679 9.0 461.0
680 802.0 241.0
681 762.0 51.0
682 563.0 726.0
683 581.0 433.0
684 326.0 404.0
685 410.0 294.0
686 50.0 211.0
687 259.0 128.0
688 388.0 77.0
689 108.0 593.0
690 551.0 538.0
691 52.0 799.0
692 783.0 146.0
693 559.0 173.0
694 708.0 711.0
695 764.0 69.0
696 503.0 611.0
697 559.0 615.0
698 757.0 7.0
699 536.0 434.0
700 190.0 849.0
701 190.0 262.0
702 523.0 230.0
703 44.0 798.0
704 105.0 497.0
705 59.0 637.0
706 190.0 131.0
707 318.0 310.0
708 738.0 49.0
709 649.0 217.0
710 217.0 390.0
711 531.0 609.0
712 426.0 456.0
713 305.0 2.0
714 100.0 134.0
715 659.0 181.0
716 346.0 399.0
717 736.0 238.0
718 165.0 190.0
719 18.0 6.0
720 596.0 82.0
721 56.0 126.0
722 304.0 733.0
723 127.0 163.0
724 63.0 370.0
725 224.0 577.0
726 114.0 531.0
727 684.0 7.0
728 809.0 510.0
729 476.0 61.0
730 238.0 721.0
731 834.0 291.0
732 761.0 630.0
733 317.0 840.0
734 34.0 295.0
735 724.0 1.0
736 571.0 3.0
737 713.0 267.0
738 372.0 683.0
739 320.0 785.0
740 400.0 847.0
741 547.0 151.0
742 29.0 702.0
743 198.0 140.0
744 566.0 809.0
745 727.0 332.0
746 279.0 763.0
747 746.0 704.0
748 58.0 51.0
749 435.0 50.0
750 632.0 162.0
751 106.0 181.0
752 627.0 172.0
753 338.0 166.0
754 575.0 625.0
755 643.0 358.0
756 405.0 264.0
757 468.0 376.0
758 620.0 674.0
759 666.0 126.0
760 498.0 571.0
761 373.0 425.0
762 34.0 421.0
763 650.0 98.0
764 155.0 771.0
765 624.0 184.0
766 2.0 10.0
767 712.0 534.0
768 603.0 330.0
769 625.0 465.0
770 768.0 302.0
771 72.0 456.0
772 807.0 154.0
773 430.0 166.0
774 448.0 408.0
775 699.0 444.0
776 734.0 175.0
777 281.0 463.0
778 131.0 73.0
779 121.0 134.0
780 589.0 78.0
781 392.0 158.0
782 507.0 328.0
783 604.0 781.0
784 413.0 505.0
785 650.0 44.0
786 359.0 813.0
787 287.0 501.0
788 112.0 532.0
789 74.0 94.0
790 248.0 397.0
791 242.0 774.0
792 752.0 286.0
793 132.0 279.0
794 794.0 192.0
795 58.0 380.0
796 835.0 582.0
797 386.0 327.0
798 332.0 799.0
799 584.0 65.0
800 610.0 31.0
801 496.0 291.0
802 639.0 410.0
803 489.0 822.0
804 767.0 375.0
805 657.0 375.0
806 501.0 243.0
807 574.0 643.0
808 1.0 579.0
809 156.0 415.0
810 304.0 806.0
811 835.0 213.0
812 608.0 475.0
813 707.0 786.0
814 703.0 334.0
815 318.0 119.0
816 113.0 378.0
817 585.0 577.0
818 291.0 806.0
819 545.0 517.0
820 723.0 90.0
821 31.0 84.0
822 568.0 495.0
823 819.0 129.0
824 752.0 311.0
825 644.0 592.0
826 387.0 753.0
827 462.0 138.0
828 97.0 701.0
829 617.0 762.0
830 117.0 623.0
831 107.0 342.0
832 121.0 149.0
833 79.0 411.0
834 707.0 47.0
835 286.0 434.0
836 816.0 154.0
837 588.0 372.0
838 635.0 167.0
839 657.0 589.0
840 83.0 807.0
841 527.0 139.0
842 674.0 516.0
843 670.0 345.0
844 747.0 486.0
845 433.0 245.0
846 664.0 504.0
847 244.0 390.0
848 114.0 770.0
849 262.0 156.0
850 449.0 745.0
EOF





